% demand
num_movements = 25;
loading_factor = [800, 1050, 1550, 800, 1050, 1750, 850, 1800, 1100, 1700, 1150, 1250, 1900, 1750, 1750, 1950, 1350, 800, 1550, 1700, 1650, 1900, 1600, 1450, 1550];
pickup_time = [0, 0, 0, 0, 0, 0, 1, 2, 2, 2, 2, 2, 4, 4, 6, 6, 6, 6, 8, 10, 10, 10, 10, 12, 12];
delivery_time = [2, 1, 1, 2, 2, 2, 2, 6, 3, 4, 8, 4, 6, 5, 7, 8, 7, 7, 9, 12, 13, 13, 11, 13, 13];

% transporter definition
total_capacity = 7000;
num_decks = 3;
capacity = [3000, 1000, 3000];

% ways out of decks
num_ways_out = 1;
paths_out = array3d(decks, ways_out, decks, [
% ways out of deck d1
2, 3, 0, 

% ways out of deck d2
3, 0, 0, 

% ways out of deck d3
0, 0, 0,	

]);

